NAME : local_13
TYPE : ATSP
DIMENSION : 10
EDGE_WEIGHT_TYPE : EXPLICIT
EDGE_WEIGHT_FORMAT : FULL_MATRIX
EDGE_WEIGHT_SECTION
0 818 747 765 796 804 10000000 10000000 938 603 
0 0 358 10000000 10000000 654 10000000 795 10000000 754 
0 358 0 1060 10000000 316 10000000 466 10000000 824 
0 10000000 1099 0 258 10000000 499 10000000 180 316 
0 10000000 10000000 258 0 10000000 304 10000000 294 532 
0 654 316 10000000 10000000 0 10000000 324 10000000 1103 
0 10000000 10000000 499 304 10000000 0 10000000 431 777 
0 795 466 10000000 10000000 324 10000000 0 10000000 10000000 
0 10000000 10000000 180 294 10000000 431 10000000 0 466 
0 10000000 10000000 10000000 10000000 10000000 10000000 10000000 10000000 0 
EOF